% ----DATA VARIABLES----

t=10;%number of attributes
k=8;%max length of the support set
n=10;%number of positive instances
m=10;%number of negative instances
c=2;%number of atMostOne Constraints

% ----OMEGAS----

omegap= [| 0, 0, 0, 0, 1, 0, 1, 1, 1, 0|
 0, 0, 1, 0, 0, 1, 1, 1, 0, 1|
 0, 0, 1, 1, 0, 0, 0, 1, 1, 1|
 1, 1, 1, 0, 1, 1, 0, 0, 0, 1|
 1, 1, 1, 1, 0, 1, 0, 1, 1, 0|
 0, 0, 1, 0, 0, 1, 1, 1, 1, 1|
 0, 1, 0, 0, 1, 0, 1, 0, 0, 0|
 0, 0, 0, 0, 0, 1, 1, 0, 1, 0|
 1, 0, 0, 0, 0, 1, 1, 0, 0, 1|
 1, 0, 1, 0, 0, 0, 1, 0, 1, 1|];

omegan= [| 0, 1, 1, 0, 1, 0, 0, 1, 0, 1|
 1, 1, 0, 1, 0, 1, 0, 0, 0, 1|
 0, 1, 1, 1, 1, 1, 1, 0, 0, 0|
 1, 1, 1, 1, 1, 0, 0, 1, 1, 0|
 1, 0, 1, 1, 0, 1, 1, 0, 0, 0|
 0, 1, 1, 0, 0, 1, 0, 1, 0, 0|
 0, 1, 0, 0, 0, 1, 1, 0, 1, 1|
 1, 0, 1, 0, 1, 1, 0, 0, 1, 1|
 1, 0, 1, 0, 1, 1, 1, 1, 0, 0|
 0, 0, 0, 0, 0, 0, 1, 1, 1, 1|];

% ----CONSTRAINS----

atMostOne=[{9, 1, 1, 8}, {6, 4, 7, 9}];